
Gurobi 13.0.1 (linux64) logging started Tue Apr  7 14:59:26 2026

Set parameter LogFile to value "logs_sparse/50B_6F_robust_gamma_0d05_theta_0d05199999999999999_2026-04-07_14h59m13s.log"
Set parameter MIPGap to value 0.005
Set parameter OptimalityTol to value 0.005
Gurobi Optimizer version 13.0.1 build v13.0.1rc0 (linux64 - "Linux Mint 22")

CPU model: 12th Gen Intel(R) Core(TM) i7-12700, instruction set [SSE2|AVX|AVX2]
Thread count: 20 physical cores, 20 logical processors, using up to 20 threads

Non-default parameters:
TimeLimit  3600
SoftMemLimit  12
MIPGap  0.005
OptimalityTol  0.005

Optimize a model with 60351 rows, 780571 columns and 2406497 nonzeros (Max)
Model fingerprint: 0x2c08ab84
Model has 735061 linear objective coefficients
Variable types: 15571 continuous, 765000 integer (765000 binary)
Coefficient statistics:
  Matrix range     [3e-05, 1e+05]
  Objective range  [1e+00, 3e+03]
  Bounds range     [1e+00, 1e+05]
  RHS range        [8e-03, 1e+05]

Presolve removed 31036 rows and 564194 columns
Presolve time: 1.41s
Presolved: 29315 rows, 216377 columns, 690861 nonzeros
Variable types: 7469 continuous, 208908 integer (208908 binary)
Found heuristic solution: objective -3.89166e+08
Found heuristic solution: objective -3.86459e+08
Deterministic concurrent LP optimizer: primal simplex, dual simplex, and barrier
Showing barrier log only...

Root barrier log...

Ordering time: 0.41s

Barrier statistics:
 AA' NZ     : 4.006e+05
 Factor NZ  : 3.152e+06 (roughly 120 MB of memory)
 Factor Ops : 6.047e+08 (less than 1 second per iteration)
 Threads    : 18

                  Objective                Residual
Iter       Primal          Dual         Primal    Dual     Compl     Time
   0  -2.16824489e+12  1.05136529e+09  2.99e+07 5.12e+02  2.95e+07     3s
   1  -1.95897316e+11  2.78389656e+09  2.72e+06 3.66e+02  2.72e+06     3s
   2  -5.73236475e+08  1.53718089e+09  7.53e+03 5.04e+01  1.13e+04     3s
   3   8.33146454e+07  7.48917370e+08  3.48e+02 7.54e+00  1.75e+03     3s
   4   1.16225671e+08  3.01433629e+08  9.58e+01 1.42e+00  4.71e+02     3s
   5   1.19727390e+08  1.90406130e+08  7.13e+01 6.00e-01  1.95e+02     3s
   6   1.24263015e+08  1.56926806e+08  3.69e+01 1.47e-01  9.07e+01     3s
   7   1.26793889e+08  1.44732947e+08  2.03e+01 7.37e-03  4.92e+01     3s
   8   1.28248678e+08  1.35599717e+08  9.59e+00 4.06e-04  2.00e+01     3s
   9   1.29311595e+08  1.31074921e+08  1.02e+00 4.12e-05  4.16e+00     3s
  10   1.29453535e+08  1.30262474e+08  3.20e-01 1.83e-05  1.84e+00     3s
  11   1.29573726e+08  1.29835770e+08  4.61e-02 4.44e-06  5.88e-01     3s
  12   1.29613389e+08  1.29724503e+08  1.61e-02 1.83e-06  2.49e-01     3s
  13   1.29634043e+08  1.29678204e+08  5.14e-03 6.10e-07  9.90e-02     3s
  14   1.29640492e+08  1.29666130e+08  2.42e-03 3.78e-07  5.75e-02     3s
  15   1.29643289e+08  1.29661355e+08  1.43e-03 7.51e-05  4.05e-02     3s
  16   1.29645481e+08  1.29654978e+08  7.54e-04 4.53e-05  2.13e-02     3s
  17   1.29646548e+08  1.29650920e+08  4.45e-04 1.32e-05  9.80e-03     3s
  18   1.29647155e+08  1.29649997e+08  2.83e-04 8.64e-06  6.37e-03     3s
  19   1.29647690e+08  1.29649128e+08  1.28e-04 4.41e-06  3.22e-03     3s
  20   1.29647842e+08  1.29648751e+08  8.45e-05 2.55e-06  2.04e-03     3s
  21   1.29647947e+08  1.29648567e+08  5.69e-05 1.75e-06  1.39e-03     3s
  22   1.29648021e+08  1.29648430e+08  3.56e-05 1.05e-06  9.17e-04     3s
  23   1.29648077e+08  1.29648330e+08  2.07e-05 6.22e-07  5.65e-04     4s
  24   1.29648104e+08  1.29648224e+08  1.32e-05 1.63e-07  2.68e-04     4s
  25   1.29648139e+08  1.29648193e+08  4.00e-06 8.17e-08  1.23e-04     4s
  26   1.29648146e+08  1.29648165e+08  2.18e-06 1.54e-08  4.38e-05     4s
  27   1.29648151e+08  1.29648159e+08  7.47e-07 5.29e-09  1.80e-05     4s
  28   1.29648153e+08  1.29648155e+08  3.14e-07 1.75e-10  4.44e-06     4s
  29   1.29648154e+08  1.29648154e+08  9.93e-09 1.68e-10  1.49e-07     4s
  30   1.29648154e+08  1.29648154e+08  2.91e-10 1.52e-10  1.65e-10     4s

Barrier solved model in 30 iterations and 3.83 seconds (5.64 work units)
Optimal objective 1.29648154e+08

Crossover time: 0.76 seconds (0.87 work units)
Concurrent spin time: 0.00s

Solved with barrier

Root relaxation: objective 1.296482e+08, 14272 iterations, 2.78 seconds (3.38 work units)

    Nodes    |    Current Node    |     Objective Bounds      |     Work
 Expl Unexpl |  Obj  Depth IntInf | Incumbent    BestBd   Gap | It/Node Time

     0     0 1.2965e+08    0 5022 -3.865e+08 1.2965e+08   134%     -    5s
H    0     0                    -2.63763e+08 1.2965e+08   149%     -    8s
H    0     0                    -2.06255e+07 1.2965e+08   729%     -    9s
H    0     0                    -4009767.476 1.2965e+08  3333%     -   13s
H    0     0                    5296602.2872 1.2965e+08  2348%     -   14s
H    0     0                    1.251924e+07 1.2965e+08   936%     -   16s
H    0     0                    2.389856e+07 1.2965e+08   442%     -   16s
H    0     0                    4.734880e+07 1.2965e+08   174%     -   17s
H    0     0                    5.940534e+07 1.2965e+08   118%     -   17s
     0     0 1.2965e+08    0 4699 5.9405e+07 1.2965e+08   118%     -   99s
H    0     0                    5.969046e+07 1.2965e+08   117%     -  119s
H    0     0                    8.466244e+07 1.2965e+08  53.1%     -  123s
H    0     0                    8.508203e+07 1.2965e+08  52.4%     -  132s
H    0     0                    9.883782e+07 1.2965e+08  31.2%     -  132s
H    0     0                    9.988759e+07 1.2965e+08  29.8%     -  137s
H    0     0                    9.990713e+07 1.2965e+08  29.8%     -  141s
H    0     0                    9.990743e+07 1.2965e+08  29.8%     -  141s
H    0     0                    1.006440e+08 1.2965e+08  28.8%     -  145s
H    0     0                    1.007309e+08 1.2965e+08  28.7%     -  162s
H    0     0                    1.008015e+08 1.2965e+08  28.6%     -  162s
H    0     0                    1.009557e+08 1.2965e+08  28.4%     -  162s
H    0     0                    1.028441e+08 1.2965e+08  26.1%     -  162s
H    0     0                    1.032127e+08 1.2965e+08  25.6%     -  173s
H    0     0                    1.032129e+08 1.2965e+08  25.6%     -  173s
H    0     0                    1.032137e+08 1.2965e+08  25.6%     -  173s
     0     0 1.2965e+08    0 4578 1.0321e+08 1.2965e+08  25.6%     -  188s
     0     0 1.2965e+08    0 4342 1.0321e+08 1.2965e+08  25.6%     -  271s
H    0     0                    1.167117e+08 1.2965e+08  11.1%     -  273s
H    0     0                    1.203836e+08 1.2965e+08  7.70%     -  274s
H    0     0                    1.220417e+08 1.2965e+08  6.23%     -  277s
H    0     0                    1.224035e+08 1.2965e+08  5.92%     -  288s
H    0     0                    1.231862e+08 1.2965e+08  5.25%     -  290s
H    0     0                    1.235920e+08 1.2965e+08  4.90%     -  290s
H    0     0                    1.236710e+08 1.2965e+08  4.83%     -  290s
H    0     0                    1.249467e+08 1.2965e+08  3.76%     -  293s
H    0     0                    1.252362e+08 1.2965e+08  3.52%     -  293s
H    0     0                    1.252807e+08 1.2965e+08  3.49%     -  293s
H    0     0                    1.252884e+08 1.2965e+08  3.48%     -  293s
H    0     0                    1.253355e+08 1.2965e+08  3.44%     -  293s
H    0     0                    1.261194e+08 1.2965e+08  2.80%     -  293s
H    0     0                    1.265197e+08 1.2965e+08  2.47%     -  295s
H    0     0                    1.265618e+08 1.2965e+08  2.44%     -  295s
     0     0 1.2965e+08    0 4219 1.2656e+08 1.2965e+08  2.44%     -  313s
     0     0 1.2965e+08    0 4711 1.2656e+08 1.2965e+08  2.44%     -  466s
     0     0 1.2965e+08    0 4843 1.2656e+08 1.2965e+08  2.44%     -  469s
     0     0 1.2965e+08    0 5295 1.2656e+08 1.2965e+08  2.44%     -  578s
     0     0 1.2965e+08    0 5295 1.2656e+08 1.2965e+08  2.44%     -  579s
     0     0 1.2965e+08    0 5252 1.2656e+08 1.2965e+08  2.44%     -  580s
H    0     0                    1.266066e+08 1.2965e+08  2.40%     -  649s
H    0     0                    1.266066e+08 1.2965e+08  2.40%     -  657s
H    0     0                    1.266069e+08 1.2965e+08  2.40%     -  658s
H    0     0                    1.266069e+08 1.2965e+08  2.40%     -  658s
H    0     0                    1.266069e+08 1.2965e+08  2.40%     -  660s
H    0     0                    1.266069e+08 1.2965e+08  2.40%     -  677s
H    0     0                    1.266888e+08 1.2965e+08  2.34%     -  682s
H    0     2                    1.267840e+08 1.2965e+08  2.26%     -  683s
     0     2 1.2965e+08    0 5229 1.2678e+08 1.2965e+08  2.26%     -  683s
     1     3 1.2965e+08    1 5125 1.2678e+08 1.2965e+08  2.26% 24072  698s
     2     4 1.2965e+08    1 5214 1.2678e+08 1.2965e+08  2.26% 76145  786s
     3     7 1.2965e+08    2 4926 1.2678e+08 1.2965e+08  2.26% 56601  887s
H    6    14                    1.268405e+08 1.2965e+08  2.21% 61098 1011s
    13    21 1.2965e+08    4 5100 1.2684e+08 1.2965e+08  2.21% 93473 2181s
H   15    21                    1.268408e+08 1.2965e+08  2.21% 124309 2181s
H   20    38                    1.268409e+08 1.2965e+08  2.21% 147261 2778s
H   21    38                    1.273862e+08 1.2965e+08  1.78% 143804 2778s
    37    58 1.2965e+08    5 4812 1.2739e+08 1.2965e+08  1.78% 147333 3126s
H   38    58                    1.273862e+08 1.2965e+08  1.78% 143455 3126s
H   39    58                    1.273862e+08 1.2965e+08  1.78% 140054 3126s
H   40    58                    1.273935e+08 1.2965e+08  1.77% 136801 3126s
H   41    58                    1.275289e+08 1.2965e+08  1.66% 133875 3126s
H   50    58                    1.295350e+08 1.2965e+08  0.09% 114317 3126s

Cutting planes:
  Gomory: 1
  MIR: 10
  Flow cover: 47
  Zero half: 9
  RLT: 4266
  Relax-and-lift: 72

Explored 57 nodes (6315015 simplex iterations) in 3126.58 seconds (4477.21 work units)
Thread count was 20 (of 20 available processors)

Solution count 10: 1.29535e+08 1.27529e+08 1.27394e+08 ... 1.26784e+08

Optimal solution found (tolerance 5.00e-03)
Best objective 1.295349754715e+08, best bound 1.296475659631e+08, gap 0.0869%
